sat
(:max-memory         17.95
 :memory             17.95
 :nlsat-propagations 9
 :nlsat-stages       4
 :num-allocs         18336
 :rlimit-count       1250
 :time               0.00
 :total-time         0.01)
